17	4	3
16	23	30	23	20	18	13	
0	0	0	0	0	10	5	3	3	5	4	3	2	3	4
9	1	0	2	0	7	2	3	8	5	9	2	8	17
7	4	0	0	5	2	10	5	8	4	5	3	5	6	7
1	1	3	0	0	6	5	5	8	5	10	3	9	12	17
8	5	2	0	8	2	9	5	1	5	8	3	8	9	17
250	3	0	0	0	6	5	3	8	7	7	2	11	17
200	4	0	3	7	2	3	8	4	1	3	1	17
75	0	3	8	0	2	2	3	7	10	6	3	10	14	17
175	0	1	0	10	1	6	10	5	3	5	2	10	17
100	8	0	5	0	4	4	4	9	4	8	3	13	15	17
25	0	7	0	6	6	10	2	9	8	9	3	12	15	17
150	0	0	2	4	5	9	2	3	2	2	1	17
7	1	3	8	0	5	4	4	7	10	3	2	16	17
3	8	3	0	0	3	1	8	2	5	1	2	16	17
1	0	0	2	2	7	9	4	10	8	8	1	16
2	0	7	4	6	8	4	7	9	2	4	1	17
0	0	0	0	0	8	7	2	9	9	4	0
